32	4
18	11	13	17
0	0	0	0	0	3	2	30	31
4	7	0	7	0	2	3	29
6	18	5	0	0	2	4	28
6	18	9	0	0	1	5
6	18	0	13	0	1	6
1	0	2	0	17	1	7
10	0	8	12	0	1	8
1	0	6	0	17	1	9
10	14	0	0	8	1	10
3	0	10	11	0	2	11	27
10	0	0	13	9	1	12
9	0	11	13	0	1	13
7	0	11	0	8	1	14
5	0	0	5	17	1	15
10	10	0	13	0	1	16
8	8	0	0	3	2	17	26
3	18	0	0	9	1	18
10	13	0	0	17	1	19
9	18	11	0	0	1	20
5	0	11	5	0	1	21
3	18	0	0	17	1	22
1	0	9	11	0	1	23
1	18	0	0	17	1	24
6	0	0	13	17	1	25
7	0	2	4	0	1	32
3	14	0	0	6	1	32
5	0	8	6	0	1	32
1	6	0	13	0	1	32
4	0	0	7	13	1	32
2	5	11	0	0	1	32
6	0	10	0	16	1	32
0	0	0	0	0	0
